UBC_100_10.txt

VEHICLE     CAPACITY  LOCATIONS  CUSTOMER  OPTIONS  PRIORITIES  NUMTYPS
10		400		105		100		200		3		4

CUSTOMER  DEMAND
0	 12
1	 16
2	 10
3	 20
4	 19
5	 11
6	 13
7	 10
8	 11
9	 18
10	 15
11	 15
12	 12
13	 13
14	 16
15	 10
16	 11
17	 18
18	 13
19	 17
20	 13
21	 17
22	 13
23	 15
24	 16
25	 16
26	 10
27	 10
28	 16
29	 17
30	 19
31	 18
32	 10
33	 10
34	 17
35	 15
36	 15
37	 15
38	 13
39	 13
40	 11
41	 18
42	 20
43	 11
44	 18
45	 12
46	 12
47	 10
48	 13
49	 13
50	 19
51	 11
52	 12
53	 12
54	 18
55	 14
56	 16
57	 10
58	 12
59	 13
60	 17
61	 18
62	 17
63	 18
64	 16
65	 17
66	 15
67	 10
68	 15
69	 13
70	 18
71	 11
72	 15
73	 20
74	 19
75	 11
76	 15
77	 10
78	 17
79	 11
80	 10
81	 10
82	 18
83	 12
84	 20
85	 10
86	 10
87	 12
88	 14
89	 20
90	 20
91	 14
92	 20
93	 10
94	 15
95	 10
96	 13
97	 20
98	 13
99	 17

LOCATION  XCOORD  YCOORD  CAP  READY  DUE  TYP  SERVICETIME
0		7		38		-1		0		720	 0		0
1		17		10		-1		0		360		 2		6
2		42		20		-1		127		367		 2		6
3		36		20		-1		0		360		 2		6
4		33		15		-1		0		360		 2		6
5		11		42		-1		430		550		 2		6
6		29		20		-1		360		720		 2		6
7		37		43		-1		360		720		 2		6
8		34		39		-1		0		360		 2		6
9		35		1		-1		479		599		 2		6
10		41		48		-1		527		647		 2		6
11		20		26		-1		361		601		 2		6
12		13		19		-1		397		637		 2		6
13		30		24		-1		392		512		 2		6
14		22		43		-1		0		360		 2		6
15		3		14		-1		0		360		 2		6
16		49		13		-1		0		360		 2		6
17		19		23		-1		360		720		 2		6
18		23		44		-1		123		243		 2		6
19		24		1		-1		0		360		 2		6
20		41		35		-1		240		480		 2		6
21		35		13		-1		360		720		 2		6
22		15		17		-1		0		360		 2		6
23		21		44		-1		0		360		 2		6
24		18		20		-1		47		287		 2		6
25		29		43		-1		0		360		 2		6
26		16		25		-1		444		564		 2		6
27		29		41		-1		120		360		 2		6
28		28		6		-1		360		720		 2		6
29		27		13		-1		0		360		 2		6
30		16		13		-1		120		240		 2		6
31		44		12		-1		177		297		 2		6
32		6		44		-1		213		333		 2		6
33		36		13		-1		24		264		 2		6
34		6		14		-1		432		672		 2		6
35		42		15		-1		360		720		 2		6
36		33		10		-1		360		720		 2		6
37		8		48		-1		360		720		 2		6
38		6		3		-1		546		666		 2		6
39		23		17		-1		360		720		 2		6
40		6		43		-1		553		673		 2		6
41		14		3		-1		360		720		 2		6
42		42		27		-1		0		360		 2		6
43		19		18		-1		30		150		 2		6
44		49		29		-1		33		153		 2		6
45		9		31		-1		360		720		 2		6
46		33		9		-1		0		360		 2		6
47		7		17		-1		72		192		 2		6
48		30		49		-1		0		360		 2		6
49		44		36		-1		360		720		 2		6
50		35		38		-1		0		360		 2		6
51		39		47		-1		0		360		 2		6
52		10		16		-1		360		720		 2		6
53		30		48		-1		360		720		 2		6
54		40		3		-1		351		591		 2		6
55		33		24		-1		180		420		 2		6
56		11		12		-1		26		146		 2		6
57		6		26		-1		387		627		 2		6
58		46		15		-1		11		131		 2		6
59		45		24		-1		113		233		 2		6
60		40		3		-1		107		227		 2		6
61		49		1		-1		549		669		 2		6
62		9		45		-1		223		343		 2		6
63		10		4		-1		118		238		 2		6
64		49		22		-1		360		720		 2		6
65		32		44		-1		505		625		 2		6
66		23		23		-1		39		159		 2		6
67		1		31		-1		336		576		 2		6
68		50		45		-1		129		249		 2		6
69		36		15		-1		419		539		 2		6
70		36		13		-1		509		629		 2		6
71		24		33		-1		49		169		 2		6
72		23		42		-1		425		665		 2		6
73		44		44		-1		0		360		 2		6
74		39		40		-1		12		132		 2		6
75		46		13		-1		360		480		 2		6
76		27		23		-1		479		599		 2		6
77		16		36		-1		360		720		 2		6
78		2		15		-1		360		720		 2		6
79		31		26		-1		600		720		 2		6
80		44		19		-1		519		639		 2		6
81		49		6		-1		83		203		 2		6
82		11		35		-1		360		720		 2		6
83		22		24		-1		98		218		 2		6
84		29		19		-1		0		360		 2		6
85		22		37		-1		25		145		 2		6
86		37		33		-1		0		360		 2		6
87		43		38		-1		3		123		 2		6
88		39		39		-1		360		720		 2		6
89		2		4		-1		0		360		 2		6
90		37		30		-1		409		649		 2		6
91		8		32		-1		0		360		 2		6
92		2		46		-1		360		720		 2		6
93		11		49		-1		557		677		 2		6
94		23		39		-1		360		720		 2		6
95		25		50		-1		0		360		 2		6
96		18		17		-1		439		559		 2		6
97		12		27		-1		0		360		 2		6
98		25		3		-1		31		151		 2		6
99		21		28		-1		410		530		 2		6
100		31		31		-1		0		360		 2		6
101		45		43		25		0		720		 1		4
102		21		40		30		201		681		 1		4
103		37		15		30		234		714		 1		4
104		5		13		30		53		533		 1		4
OPTION  LOCATION  CUSTOMER  PRIO  SERVICETIME   COST
0		103		0		0		2		0
1		103		1		0		2		0
2		101		2		0		2		0
3		104		3		0		2		0
4		101		4		0		2		0
5		104		5		0		2		0
6		103		6		0		2		0
7		103		7		0		2		0
8		101		8		0		2		0
9		102		9		0		2		0
10		104		10		0		2		0
11		104		11		0		2		0
12		103		12		0		2		0
13		103		13		0		2		0
14		103		14		0		2		0
15		103		15		0		2		0
16		103		16		0		2		0
17		102		17		0		2		0
18		102		18		0		2		0
19		103		19		0		2		0
20		1		20		0		5		0
21		2		21		0		5		0
22		3		22		0		5		0
23		4		23		0		5		0
24		5		24		0		5		0
25		6		25		0		5		0
26		7		26		0		5		0
27		8		27		0		5		0
28		9		28		0		5		0
29		10		29		0		5		0
30		11		30		0		5		0
31		12		31		0		5		0
32		13		32		0		5		0
33		14		33		0		5		0
34		15		34		0		5		0
35		16		35		0		5		0
36		17		36		0		5		0
37		18		37		0		5		0
38		19		38		0		5		0
39		20		39		0		5		0
40		21		40		0		5		0
41		104		40		1		2		0
42		22		41		0		5		0
43		102		41		1		2		0
44		23		42		1		5		0
45		103		42		0		2		0
46		24		43		0		5		0
47		101		43		1		2		0
48		25		44		1		5		0
49		101		44		0		2		0
50		26		45		0		5		0
51		103		45		1		2		0
52		27		46		1		5		0
53		104		46		0		2		0
54		28		47		1		5		0
55		102		47		0		2		0
56		29		48		0		5		0
57		104		48		1		2		0
58		30		49		1		5		0
59		104		49		0		2		0
60		31		50		1		5		0
61		102		50		0		2		0
62		32		51		1		5		0
63		104		51		0		2		0
64		33		52		1		5		0
65		101		52		0		2		0
66		34		53		1		5		0
67		104		53		0		2		0
68		35		54		1		5		0
69		103		54		0		2		0
70		36		55		1		5		0
71		102		55		0		2		0
72		37		56		1		5		0
73		102		56		0		2		0
74		38		57		0		5		0
75		104		57		1		2		0
76		39		58		0		5		0
77		101		58		1		2		0
78		40		59		1		5		0
79		102		59		0		2		0
80		41		60		2		5		0
81		102		60		0		2		0
82		101		60		1		2		0
83		42		61		0		5		0
84		103		61		1		2		0
85		101		61		2		2		0
86		43		62		1		5		0
87		102		62		2		2		0
88		103		62		0		2		0
89		44		63		0		5		0
90		102		63		2		2		0
91		101		63		1		2		0
92		45		64		2		5		0
93		101		64		1		2		0
94		104		64		0		2		0
95		46		65		0		5		0
96		102		65		1		2		0
97		103		65		2		2		0
98		47		66		0		5		0
99		102		66		2		2		0
100		103		66		1		2		0
101		48		67		1		5		0
102		104		67		2		2		0
103		102		67		0		2		0
104		49		68		1		5		0
105		103		68		2		2		0
106		104		68		0		2		0
107		50		69		2		5		0
108		103		69		0		2		0
109		104		69		1		2		0
110		51		70		0		5		0
111		102		70		2		2		0
112		104		70		1		2		0
113		52		71		2		5		0
114		102		71		0		2		0
115		103		71		1		2		0
116		53		72		2		5		0
117		104		72		0		2		0
118		101		72		1		2		0
119		54		73		0		5		0
120		101		73		1		2		0
121		104		73		2		2		0
122		55		74		0		5		0
123		103		74		1		2		0
124		104		74		2		2		0
125		56		75		2		5		0
126		104		75		0		2		0
127		101		75		1		2		0
128		57		76		0		5		0
129		101		76		1		2		0
130		104		76		2		2		0
131		58		77		1		5		0
132		101		77		2		2		0
133		102		77		0		2		0
134		59		78		2		5		0
135		103		78		0		2		0
136		104		78		1		2		0
137		60		79		0		5		0
138		104		79		1		2		0
139		103		79		2		2		0
140		61		80		2		5		0
141		62		80		0		5		0
142		101		80		1		2		0
143		63		81		0		5		0
144		64		81		1		5		0
145		102		81		2		2		0
146		65		82		0		5		0
147		66		82		2		5		0
148		102		82		1		2		0
149		67		83		0		5		0
150		68		83		1		5		0
151		104		83		2		2		0
152		69		84		2		5		0
153		70		84		1		5		0
154		103		84		0		2		0
155		71		85		2		5		0
156		72		85		0		5		0
157		103		85		1		2		0
158		73		86		2		5		0
159		74		86		0		5		0
160		101		86		1		2		0
161		75		87		2		5		0
162		76		87		1		5		0
163		104		87		0		2		0
164		77		88		1		5		0
165		78		88		2		5		0
166		104		88		0		2		0
167		79		89		1		5		0
168		80		89		2		5		0
169		104		89		0		2		0
170		81		90		2		5		0
171		82		90		0		5		0
172		101		90		1		2		0
173		83		91		0		5		0
174		84		91		1		5		0
175		103		91		2		2		0
176		85		92		0		5		0
177		86		92		1		5		0
178		101		92		2		2		0
179		87		93		1		5		0
180		88		93		2		5		0
181		104		93		0		2		0
182		89		94		2		5		0
183		90		94		1		5		0
184		101		94		0		2		0
185		91		95		2		5		0
186		92		95		0		5		0
187		104		95		1		2		0
188		93		96		0		5		0
189		94		96		1		5		0
190		101		96		2		2		0
191		95		97		2		5		0
192		96		97		0		5		0
193		101		97		1		2		0
194		97		98		1		5		0
195		98		98		0		5		0
196		101		98		2		2		0
197		99		99		1		5		0
198		100		99		2		5		0
199		102		99		0		2		0
